data/solutions/planning/wellformed/moderate/weighting/wellformed_moderate_instance87_cplex.sol
Elapsed time: 0.84
Nodes explored: 3672
Nodes left: 0
Relative gap: 0.0
Upper bound: 51267.0
Lower bound: 51267
C[0]=814.0
C[1]=814.0
C[2]=813.0
C[3]=813.0
C[4]=813.0
C[5]=813.0
y[0]=0
y[1]=4
y[2]=4
y[3]=4
y[4]=3
y[5]=2
y[6]=0
y[7]=5
y[8]=0
y[9]=1
y[10]=4
y[11]=0
y[12]=1
y[13]=5
y[14]=4
y[15]=5
y[16]=0
y[17]=5
y[18]=3
y[19]=3
y[20]=3
y[21]=1
y[22]=1
y[23]=5
y[24]=2
y[25]=2
y[26]=5
y[27]=1
y[28]=3
y[29]=1
y[30]=3
y[31]=4
y[32]=2
y[33]=4
y[34]=2
y[35]=5
y[36]=0
y[37]=2
y[38]=2
y[39]=2
